136
1000000
183309
50964
374915
346422
151260
6251
51302
364933
113334
74022
21005
425577
61427
448512
360025
447656
148036
258563
387854
316267
19996
161578
218843
214172
405641
309411
90555
83986
157696
215731
129058
223603
208729
195813
157813
41331
374408
380287
361793
11857
69991
208227
89679
340000
416727
473023
409202
184012
35087
455963
168657
279598
66263
92603
449318
135591
40176
342720
356261
488664
314539
78841
280496
6415
361407
421729
325288
313404
142281
226164
173759
213143
180177
196525
467598
161
21132
89607
264496
14732
249868
443795
64298
191183
469091
34790
84896
401954
405339
177602
359822
261813
81869
95964
168555
92307
30688
370946
130810
260119
418172
470255
58463
180591
241569
15590
374376
111043
493012
73949
473607
360021
313279
57011
342622
21140
373080
161534
302040
27987
125100
61492
22111
490061
209722
124439
155718
45389
489910
290090
9561
151555
208367
150688
26722
446434
